c steiner3_9_12.edge
c minimum set cover = 5 (54 solutions)
c 1 2 3 4 5 6 7 8 9
p hedge 9 12
h   2 3 4                
h 1   3   5              
h 1 2       6            
h         5 6 7          
h       4   6   8        
h       4 5       9      
h 1             8 9      
h   2         7   9      
h     3       7 8        
h 1     4     7          
h   2     5     8        
h     3     6     9      

c 1 2 3 4 5 6 7 8 9
p cnf  9 12
    2 3 4               0
  1   3   5             0
  1 2       6           0
          5 6 7         0
        4   6   8       0
        4 5       9     0
  1             8 9     0
    2         7   9     0
      3       7 8       0
  1     4     7         0
    2     5     8       0
      3     6     9     0
